instances/knapsack/discrete_knapsack_uncertainty/knapsack_130_18.lp
\ Model knapsack_130_18
\ LP format - for model browsing. Use MPS format to capture full model detail.
\ Signature: 0x8c644a484ac146d4
Minimize
  - 94 x[0] - 2 x[1] - 8 x[2] - 96 x[3] - 73 x[4] - 93 x[5] - 17 x[6]
   - 35 x[7] - 66 x[8] - 26 x[9] - 51 x[10] - 3 x[11] - 99 x[12] - 18 x[13]
   - 79 x[14] - 40 x[15] - 82 x[16] - 50 x[17] - 2 x[18] - x[19] - 53 x[20]
   - 95 x[21] - 56 x[22] - 88 x[23] - 65 x[24] - 30 x[25] - 24 x[26]
   - 39 x[27] - 42 x[28] - 92 x[29] - 5 x[30] - 20 x[31] - 24 x[32]
   - 43 x[33] - 39 x[34] - x[35] - 45 x[36] - 59 x[37] - 46 x[38]
   - 27 x[39] - 76 x[40] - 37 x[41] - x[42] - 71 x[43] - 94 x[44]
   - 87 x[45] - 68 x[46] - 40 x[47] - 40 x[48] - 25 x[49] - 79 x[50]
   - 18 x[51] - 39 x[52] - 17 x[53] - 36 x[54] - 38 x[55] - 18 x[56]
   - 36 x[57] - 100 x[58] - 47 x[59] - 36 x[60] - 90 x[61] - 93 x[62]
   - 69 x[63] - 46 x[64] - 49 x[65] - 5 x[66] - 77 x[67] - 4 x[68]
   - 37 x[69] - 33 x[70] - 11 x[71] - 37 x[72] - 69 x[73] - 14 x[74]
   - 62 x[75] - 6 x[76] - 97 x[77] - 48 x[78] - 63 x[79] - 59 x[80]
   - 34 x[81] - 41 x[82] - 82 x[83] - x[84] - 32 x[85] - 26 x[86]
   - 39 x[87] - 80 x[88] - 78 x[89] - 42 x[90] - 9 x[91] - 49 x[92]
   - 28 x[93] - 40 x[94] - 66 x[95] - 29 x[96] - 52 x[97] - 24 x[98]
   - 44 x[99] - 88 x[100] - 37 x[101] - 54 x[102] - 29 x[103] - 75 x[104]
   - 55 x[105] - 98 x[106] - 4 x[107] - 98 x[108] - 32 x[109] - 45 x[110]
   - 18 x[111] - 5 x[112] - 47 x[113] - 18 x[114] - 45 x[115] - 39 x[116]
   - 85 x[117] - 58 x[118] - 55 x[119] - x[120] - 14 x[121] - 62 x[122]
   - 15 x[123] - 51 x[124] - 68 x[125] - 44 x[126] - 94 x[127] - 83 x[128]
   - 32 x[129]
Subject To
 primal_upper: 5 x[0] + 70 x[1] + 72 x[2] + 17 x[3] + 42 x[4] + 35 x[5]
   + 79 x[6] + 21 x[7] + 35 x[8] + 84 x[9] + 17 x[10] + 29 x[11] + 54 x[12]
   + 26 x[13] + 62 x[14] + 78 x[15] + 83 x[16] + 2 x[17] + 43 x[18]
   + 64 x[19] + 95 x[20] + 13 x[21] + 22 x[22] + 88 x[23] + 42 x[24]
   + 46 x[25] + 4 x[26] + 13 x[27] + 59 x[28] + 37 x[29] + 75 x[30]
   + 97 x[31] + 37 x[32] + 15 x[33] + 62 x[34] + 91 x[35] + 10 x[36]
   + 34 x[37] + 18 x[38] + 20 x[39] + 77 x[40] + 43 x[41] + 92 x[42]
   + 75 x[43] + x[44] + 12 x[45] + 75 x[46] + 3 x[47] + 9 x[48] + 6 x[49]
   + 76 x[50] + 18 x[51] + 91 x[52] + 54 x[53] + 70 x[54] + 9 x[55]
   + 87 x[56] + 52 x[57] + 26 x[58] + 28 x[59] + 58 x[60] + 48 x[61]
   + 49 x[62] + 52 x[63] + 61 x[64] + 86 x[65] + 78 x[66] + 8 x[67]
   + 50 x[68] + 55 x[69] + 63 x[70] + 75 x[71] + 80 x[72] + 77 x[73]
   + 65 x[74] + 26 x[75] + 88 x[76] + 89 x[77] + 78 x[78] + 40 x[79]
   + 23 x[80] + 79 x[81] + 88 x[82] + 7 x[83] + 43 x[84] + 63 x[85]
   + 33 x[86] + 86 x[87] + 36 x[88] + 33 x[89] + 74 x[90] + 70 x[91]
   + 82 x[92] + 61 x[93] + 26 x[94] + 95 x[95] + 83 x[96] + 46 x[97]
   + 74 x[98] + 98 x[99] + 47 x[100] + 10 x[101] + 68 x[102] + 98 x[103]
   + 59 x[104] + 44 x[105] + 97 x[106] + 64 x[107] + 52 x[108] + 43 x[109]
   + 60 x[110] + 93 x[111] + 43 x[112] + 55 x[113] + 15 x[114] + 36 x[115]
   + 33 x[116] + 43 x[117] + 99 x[118] + 54 x[119] + 9 x[120] + 22 x[121]
   + 33 x[122] + 76 x[123] + 91 x[124] + 8 x[125] + 5 x[126] + 65 x[127]
   + 52 x[128] + 29 x[129] + 0.5 r[0] + 7 r[1] + 7.2 r[2] + 1.7 r[3]
   + 4.2 r[4] + 3.5 r[5] + 7.9 r[6] + 2.1 r[7] + 3.5 r[8] + 8.4 r[9]
   + 1.7 r[10] + 2.9 r[11] + 5.4 r[12] + 2.6 r[13] + 6.2 r[14] + 7.8 r[15]
   + 8.3 r[16] + 0.2 r[17] + 4.3 r[18] + 6.4 r[19] + 9.5 r[20] + 1.3 r[21]
   + 2.2 r[22] + 8.8 r[23] + 4.2 r[24] + 4.6 r[25] + 0.4 r[26] + 1.3 r[27]
   + 5.9 r[28] + 3.7 r[29] + 7.5 r[30] + 9.7 r[31] + 3.7 r[32] + 1.5 r[33]
   + 6.2 r[34] + 9.1 r[35] + r[36] + 3.4 r[37] + 1.8 r[38] + 2 r[39]
   + 7.7 r[40] + 4.3 r[41] + 9.2 r[42] + 7.5 r[43] + 0.1 r[44] + 1.2 r[45]
   + 7.5 r[46] + 0.3 r[47] + 0.9 r[48] + 0.6 r[49] + 7.6 r[50] + 1.8 r[51]
   + 9.1 r[52] + 5.4 r[53] + 7 r[54] + 0.9 r[55] + 8.7 r[56] + 5.2 r[57]
   + 2.6 r[58] + 2.8 r[59] + 5.8 r[60] + 4.8 r[61] + 4.9 r[62] + 5.2 r[63]
   + 6.1 r[64] + 8.6 r[65] + 7.8 r[66] + 0.8 r[67] + 5 r[68] + 5.5 r[69]
   + 6.3 r[70] + 7.5 r[71] + 8 r[72] + 7.7 r[73] + 6.5 r[74] + 2.6 r[75]
   + 8.8 r[76] + 8.9 r[77] + 7.8 r[78] + 4 r[79] + 2.3 r[80] + 7.9 r[81]
   + 8.8 r[82] + 0.7 r[83] + 4.3 r[84] + 6.3 r[85] + 3.3 r[86] + 8.6 r[87]
   + 3.6 r[88] + 3.3 r[89] + 7.4 r[90] + 7 r[91] + 8.2 r[92] + 6.1 r[93]
   + 2.6 r[94] + 9.5 r[95] + 8.3 r[96] + 4.6 r[97] + 7.4 r[98] + 9.8 r[99]
   + 4.7 r[100] + r[101] + 6.8 r[102] + 9.8 r[103] + 5.9 r[104]
   + 4.4 r[105] + 9.7 r[106] + 6.4 r[107] + 5.2 r[108] + 4.3 r[109]
   + 6 r[110] + 9.3 r[111] + 4.3 r[112] + 5.5 r[113] + 1.5 r[114]
   + 3.6 r[115] + 3.3 r[116] + 4.3 r[117] + 9.9 r[118] + 5.4 r[119]
   + 0.9 r[120] + 2.2 r[121] + 3.3 r[122] + 7.6 r[123] + 9.1 r[124]
   + 0.8 r[125] + 0.5 r[126] + 6.5 r[127] + 5.2 r[128] + 2.9 r[129] <= 631
 primal_lower: 0.3270471117863014 x[0] + 1.501710549608566 x[1]
   + 0.1220155266454023 x[2] + 1.24333457619087 x[3]
   + 0.6013225662026644 x[4] + 1.585033631180866 x[5]
   + 2.558329364294068 x[6] + 2.736430151458744 x[7]
   + 4.242749371274593 x[8] + 0.1525748414528846 x[9]
   + 2.874094532119891 x[10] + 2.474510257025845 x[11]
   + 3.870707992092435 x[12] + 0.5654705359398637 x[13]
   + 1.550348620628175 x[14] + 3.445307318723461 x[15]
   + 3.575255451638325 x[16] + 3.72138196014811 x[17]
   + 1.037632354000758 x[18] + 1.446352380621933 x[19]
   + 3.076645134008191 x[20] + 2.339022362393892 x[21]
   + 2.859182918485695 x[22] + 0.3214579125222292 x[23]
   + 2.246946206698756 x[24] + 4.659748499394385 x[25]
   + 0.8368256607367439 x[26] + 2.1057389703364 x[27]
   + 1.423191888336872 x[28] + 1.690863950646076 x[29]
   + 4.497578393087782 x[30] + 2.47586102965239 x[31]
   + 3.799320329922482 x[32] + 0.098009741006309 x[33]
   + 3.585680221997557 x[34] + 4.363162290315753 x[35]
   + 2.965338339507674 x[36] + 4.514447484362614 x[37]
   + 4.784687239804684 x[38] + 1.784318187537998 x[39]
   + 2.735851013178461 x[40] + 4.359952289514731 x[41]
   + 4.102132025122565 x[42] + 0.4001692905825719 x[43]
   + 2.06572889494621 x[44] + 1.949809042808098 x[45]
   + 4.012717029343734 x[46] + 3.378023538356912 x[47]
   + 4.276866615579068 x[48] + 0.1688902204814641 x[49]
   + 4.29952858815974 x[50] + 2.244734918977017 x[51]
   + 0.7637010264342897 x[52] + 2.657775302988604 x[53]
   + 4.158433782884135 x[54] + 1.809092606462585 x[55]
   + 2.624237023295832 x[56] + 1.902038764421489 x[57]
   + 4.634251161156768 x[58] + 2.250463459592078 x[59]
   + 2.275035836797029 x[60] + 0.4492921264313939 x[61]
   + 4.550847435523327 x[62] + 2.764427636127549 x[63]
   + 2.050593796662767 x[64] + 3.712250880890266 x[65]
   + 0.1746563789252017 x[66] + 0.2774552455241837 x[67]
   + 4.725592451271533 x[68] + 3.421999149639244 x[69]
   + 4.398502183161631 x[70] + 0.9981109330761102 x[71]
   + 4.169705547674204 x[72] + 4.353726735192214 x[73]
   + 0.7404807125757376 x[74] + 1.845700307189676 x[75]
   + 0.7119287406558921 x[76] + 1.876618383387553 x[77]
   + 4.777331591353382 x[78] + 4.870686219515632 x[79]
   + 0.3569773964533632 x[80] + 3.357476235058646 x[81]
   + 2.518940241946954 x[82] + 1.923938617615491 x[83]
   + 4.542207627731465 x[84] + 2.503930800010575 x[85]
   + 4.171443253849698 x[86] + 0.0250800101923664 x[87]
   + 3.822026564864743 x[88] + 1.721566245028908 x[89]
   + 1.514829319240869 x[90] + 0.5368517899300745 x[91]
   + 1.825009448562632 x[92] + 3.295939348221126 x[93]
   + 2.848587872257787 x[94] + 2.297307033920959 x[95]
   + 4.839499878582532 x[96] + 2.518231237537546 x[97]
   + 1.810238713279737 x[98] + 0.1692643633024319 x[99]
   + 4.530279387347893 x[100] + 2.508189611993102 x[101]
   + 2.028680160032148 x[102] + 0.1409180436327358 x[103]
   + 4.3356726058771 x[104] + 1.354089484258365 x[105]
   + 4.558137679034552 x[106] + 1.909881369291239 x[107]
   + 1.023735189372034 x[108] + 0.9597969908145618 x[109]
   + 4.888871982587422 x[110] + 2.088992586842426 x[111]
   + 0.7721776480648922 x[112] + 1.976201546907067 x[113]
   + 1.815859614124746 x[114] + 2.164877053851015 x[115]
   + 2.142282985018719 x[116] + 1.931484629280072 x[117]
   + 2.941218128380398 x[118] + 2.494099521946983 x[119]
   + 1.310550343533972 x[120] + 4.149603811552099 x[121]
   + 4.453654184782803 x[122] + 1.844352026964074 x[123]
   + 4.040592211204923 x[124] + 3.577970755802897 x[125]
   + 3.788228996597261 x[126] + 4.003459325611181 x[127]
   + 3.207796331270352 x[128] + 2.738004899307884 x[129] + 35 u[0]
   + 52 u[1] + 26 u[2] + 39 u[3] + 20 u[4] + 73 u[5] + 29 u[6] + 19 u[7]
   + 85 u[8] + 58 u[9] + 39 u[10] + 67 u[11] + 44 u[12] + 52 u[13]
   + 48 u[14] + 52 u[15] + 81 u[16] + 52 u[17] + 33 u[18] + 62 u[19]
   + 49 u[20] + 23 u[21] + 52 u[22] + 42 u[23] + 84 u[24] + 88 u[25]
   + 10 u[26] + 39 u[27] + 21 u[28] + 51 u[29] + 57 u[30] + 83 u[31]
   + 59 u[32] + 89 u[33] + 96 u[34] + 93 u[35] + 40 u[36] + 88 u[37]
   + 92 u[38] + 62 u[39] + 55 u[40] + 57 u[41] + 14 u[42] + 13 u[43]
   + 59 u[44] + 18 u[45] + 17 u[46] + 57 u[47] + 99 u[48] + 36 u[49]
   + 70 u[50] + 80 u[51] + 49 u[52] + 48 u[53] + 68 u[54] + 71 u[55]
   + 97 u[56] + 42 u[57] + 56 u[58] + 50 u[59] + 16 u[60] + 82 u[61]
   + 23 u[62] + 34 u[63] + 7 u[64] + 12 u[65] + 84 u[66] + 26 u[67]
   + 40 u[68] + 53 u[69] + 49 u[70] + 93 u[71] + 70 u[72] + 19 u[73]
   + 59 u[74] + 28 u[75] + 42 u[76] + 59 u[77] + 68 u[78] + 2 u[79]
   + 69 u[80] + 73 u[81] + 86 u[82] + 29 u[83] + 33 u[84] + 69 u[85]
   + 59 u[86] + 100 u[87] + 2 u[88] + 67 u[89] + 56 u[90] + 80 u[91]
   + 20 u[92] + 75 u[93] + 32 u[94] + 73 u[95] + 21 u[96] + 32 u[97]
   + 96 u[98] + 8 u[99] + 49 u[100] + 100 u[101] + 22 u[102] + 44 u[103]
   + 61 u[104] + 86 u[105] + 47 u[106] + 54 u[107] + 30 u[108] + 17 u[109]
   + 26 u[110] + 55 u[111] + 97 u[112] + 53 u[113] + u[114] + 98 u[115]
   + 75 u[116] + 41 u[117] + 69 u[118] + 32 u[119] + 31 u[120] + 100 u[121]
   + 51 u[122] + 26 u[123] + 85 u[124] + 66 u[125] + 19 u[126] + 35 u[127]
   + 82 u[128] + 35 u[129] <= 30085
 mccormick1[0]: - u[0] + r[0] <= 0
 mccormick1[1]: - u[1] + r[1] <= 0
 mccormick1[2]: - u[2] + r[2] <= 0
 mccormick1[3]: - u[3] + r[3] <= 0
 mccormick1[4]: - u[4] + r[4] <= 0
 mccormick1[5]: - u[5] + r[5] <= 0
 mccormick1[6]: - u[6] + r[6] <= 0
 mccormick1[7]: - u[7] + r[7] <= 0
 mccormick1[8]: - u[8] + r[8] <= 0
 mccormick1[9]: - u[9] + r[9] <= 0
 mccormick1[10]: - u[10] + r[10] <= 0
 mccormick1[11]: - u[11] + r[11] <= 0
 mccormick1[12]: - u[12] + r[12] <= 0
 mccormick1[13]: - u[13] + r[13] <= 0
 mccormick1[14]: - u[14] + r[14] <= 0
 mccormick1[15]: - u[15] + r[15] <= 0
 mccormick1[16]: - u[16] + r[16] <= 0
 mccormick1[17]: - u[17] + r[17] <= 0
 mccormick1[18]: - u[18] + r[18] <= 0
 mccormick1[19]: - u[19] + r[19] <= 0
 mccormick1[20]: - u[20] + r[20] <= 0
 mccormick1[21]: - u[21] + r[21] <= 0
 mccormick1[22]: - u[22] + r[22] <= 0
 mccormick1[23]: - u[23] + r[23] <= 0
 mccormick1[24]: - u[24] + r[24] <= 0
 mccormick1[25]: - u[25] + r[25] <= 0
 mccormick1[26]: - u[26] + r[26] <= 0
 mccormick1[27]: - u[27] + r[27] <= 0
 mccormick1[28]: - u[28] + r[28] <= 0
 mccormick1[29]: - u[29] + r[29] <= 0
 mccormick1[30]: - u[30] + r[30] <= 0
 mccormick1[31]: - u[31] + r[31] <= 0
 mccormick1[32]: - u[32] + r[32] <= 0
 mccormick1[33]: - u[33] + r[33] <= 0
 mccormick1[34]: - u[34] + r[34] <= 0
 mccormick1[35]: - u[35] + r[35] <= 0
 mccormick1[36]: - u[36] + r[36] <= 0
 mccormick1[37]: - u[37] + r[37] <= 0
 mccormick1[38]: - u[38] + r[38] <= 0
 mccormick1[39]: - u[39] + r[39] <= 0
 mccormick1[40]: - u[40] + r[40] <= 0
 mccormick1[41]: - u[41] + r[41] <= 0
 mccormick1[42]: - u[42] + r[42] <= 0
 mccormick1[43]: - u[43] + r[43] <= 0
 mccormick1[44]: - u[44] + r[44] <= 0
 mccormick1[45]: - u[45] + r[45] <= 0
 mccormick1[46]: - u[46] + r[46] <= 0
 mccormick1[47]: - u[47] + r[47] <= 0
 mccormick1[48]: - u[48] + r[48] <= 0
 mccormick1[49]: - u[49] + r[49] <= 0
 mccormick1[50]: - u[50] + r[50] <= 0
 mccormick1[51]: - u[51] + r[51] <= 0
 mccormick1[52]: - u[52] + r[52] <= 0
 mccormick1[53]: - u[53] + r[53] <= 0
 mccormick1[54]: - u[54] + r[54] <= 0
 mccormick1[55]: - u[55] + r[55] <= 0
 mccormick1[56]: - u[56] + r[56] <= 0
 mccormick1[57]: - u[57] + r[57] <= 0
 mccormick1[58]: - u[58] + r[58] <= 0
 mccormick1[59]: - u[59] + r[59] <= 0
 mccormick1[60]: - u[60] + r[60] <= 0
 mccormick1[61]: - u[61] + r[61] <= 0
 mccormick1[62]: - u[62] + r[62] <= 0
 mccormick1[63]: - u[63] + r[63] <= 0
 mccormick1[64]: - u[64] + r[64] <= 0
 mccormick1[65]: - u[65] + r[65] <= 0
 mccormick1[66]: - u[66] + r[66] <= 0
 mccormick1[67]: - u[67] + r[67] <= 0
 mccormick1[68]: - u[68] + r[68] <= 0
 mccormick1[69]: - u[69] + r[69] <= 0
 mccormick1[70]: - u[70] + r[70] <= 0
 mccormick1[71]: - u[71] + r[71] <= 0
 mccormick1[72]: - u[72] + r[72] <= 0
 mccormick1[73]: - u[73] + r[73] <= 0
 mccormick1[74]: - u[74] + r[74] <= 0
 mccormick1[75]: - u[75] + r[75] <= 0
 mccormick1[76]: - u[76] + r[76] <= 0
 mccormick1[77]: - u[77] + r[77] <= 0
 mccormick1[78]: - u[78] + r[78] <= 0
 mccormick1[79]: - u[79] + r[79] <= 0
 mccormick1[80]: - u[80] + r[80] <= 0
 mccormick1[81]: - u[81] + r[81] <= 0
 mccormick1[82]: - u[82] + r[82] <= 0
 mccormick1[83]: - u[83] + r[83] <= 0
 mccormick1[84]: - u[84] + r[84] <= 0
 mccormick1[85]: - u[85] + r[85] <= 0
 mccormick1[86]: - u[86] + r[86] <= 0
 mccormick1[87]: - u[87] + r[87] <= 0
 mccormick1[88]: - u[88] + r[88] <= 0
 mccormick1[89]: - u[89] + r[89] <= 0
 mccormick1[90]: - u[90] + r[90] <= 0
 mccormick1[91]: - u[91] + r[91] <= 0
 mccormick1[92]: - u[92] + r[92] <= 0
 mccormick1[93]: - u[93] + r[93] <= 0
 mccormick1[94]: - u[94] + r[94] <= 0
 mccormick1[95]: - u[95] + r[95] <= 0
 mccormick1[96]: - u[96] + r[96] <= 0
 mccormick1[97]: - u[97] + r[97] <= 0
 mccormick1[98]: - u[98] + r[98] <= 0
 mccormick1[99]: - u[99] + r[99] <= 0
 mccormick1[100]: - u[100] + r[100] <= 0
 mccormick1[101]: - u[101] + r[101] <= 0
 mccormick1[102]: - u[102] + r[102] <= 0
 mccormick1[103]: - u[103] + r[103] <= 0
 mccormick1[104]: - u[104] + r[104] <= 0
 mccormick1[105]: - u[105] + r[105] <= 0
 mccormick1[106]: - u[106] + r[106] <= 0
 mccormick1[107]: - u[107] + r[107] <= 0
 mccormick1[108]: - u[108] + r[108] <= 0
 mccormick1[109]: - u[109] + r[109] <= 0
 mccormick1[110]: - u[110] + r[110] <= 0
 mccormick1[111]: - u[111] + r[111] <= 0
 mccormick1[112]: - u[112] + r[112] <= 0
 mccormick1[113]: - u[113] + r[113] <= 0
 mccormick1[114]: - u[114] + r[114] <= 0
 mccormick1[115]: - u[115] + r[115] <= 0
 mccormick1[116]: - u[116] + r[116] <= 0
 mccormick1[117]: - u[117] + r[117] <= 0
 mccormick1[118]: - u[118] + r[118] <= 0
 mccormick1[119]: - u[119] + r[119] <= 0
 mccormick1[120]: - u[120] + r[120] <= 0
 mccormick1[121]: - u[121] + r[121] <= 0
 mccormick1[122]: - u[122] + r[122] <= 0
 mccormick1[123]: - u[123] + r[123] <= 0
 mccormick1[124]: - u[124] + r[124] <= 0
 mccormick1[125]: - u[125] + r[125] <= 0
 mccormick1[126]: - u[126] + r[126] <= 0
 mccormick1[127]: - u[127] + r[127] <= 0
 mccormick1[128]: - u[128] + r[128] <= 0
 mccormick1[129]: - u[129] + r[129] <= 0
 mccormick2[0]: - x[0] + r[0] <= 0
 mccormick2[1]: - x[1] + r[1] <= 0
 mccormick2[2]: - x[2] + r[2] <= 0
 mccormick2[3]: - x[3] + r[3] <= 0
 mccormick2[4]: - x[4] + r[4] <= 0
 mccormick2[5]: - x[5] + r[5] <= 0
 mccormick2[6]: - x[6] + r[6] <= 0
 mccormick2[7]: - x[7] + r[7] <= 0
 mccormick2[8]: - x[8] + r[8] <= 0
 mccormick2[9]: - x[9] + r[9] <= 0
 mccormick2[10]: - x[10] + r[10] <= 0
 mccormick2[11]: - x[11] + r[11] <= 0
 mccormick2[12]: - x[12] + r[12] <= 0
 mccormick2[13]: - x[13] + r[13] <= 0
 mccormick2[14]: - x[14] + r[14] <= 0
 mccormick2[15]: - x[15] + r[15] <= 0
 mccormick2[16]: - x[16] + r[16] <= 0
 mccormick2[17]: - x[17] + r[17] <= 0
 mccormick2[18]: - x[18] + r[18] <= 0
 mccormick2[19]: - x[19] + r[19] <= 0
 mccormick2[20]: - x[20] + r[20] <= 0
 mccormick2[21]: - x[21] + r[21] <= 0
 mccormick2[22]: - x[22] + r[22] <= 0
 mccormick2[23]: - x[23] + r[23] <= 0
 mccormick2[24]: - x[24] + r[24] <= 0
 mccormick2[25]: - x[25] + r[25] <= 0
 mccormick2[26]: - x[26] + r[26] <= 0
 mccormick2[27]: - x[27] + r[27] <= 0
 mccormick2[28]: - x[28] + r[28] <= 0
 mccormick2[29]: - x[29] + r[29] <= 0
 mccormick2[30]: - x[30] + r[30] <= 0
 mccormick2[31]: - x[31] + r[31] <= 0
 mccormick2[32]: - x[32] + r[32] <= 0
 mccormick2[33]: - x[33] + r[33] <= 0
 mccormick2[34]: - x[34] + r[34] <= 0
 mccormick2[35]: - x[35] + r[35] <= 0
 mccormick2[36]: - x[36] + r[36] <= 0
 mccormick2[37]: - x[37] + r[37] <= 0
 mccormick2[38]: - x[38] + r[38] <= 0
 mccormick2[39]: - x[39] + r[39] <= 0
 mccormick2[40]: - x[40] + r[40] <= 0
 mccormick2[41]: - x[41] + r[41] <= 0
 mccormick2[42]: - x[42] + r[42] <= 0
 mccormick2[43]: - x[43] + r[43] <= 0
 mccormick2[44]: - x[44] + r[44] <= 0
 mccormick2[45]: - x[45] + r[45] <= 0
 mccormick2[46]: - x[46] + r[46] <= 0
 mccormick2[47]: - x[47] + r[47] <= 0
 mccormick2[48]: - x[48] + r[48] <= 0
 mccormick2[49]: - x[49] + r[49] <= 0
 mccormick2[50]: - x[50] + r[50] <= 0
 mccormick2[51]: - x[51] + r[51] <= 0
 mccormick2[52]: - x[52] + r[52] <= 0
 mccormick2[53]: - x[53] + r[53] <= 0
 mccormick2[54]: - x[54] + r[54] <= 0
 mccormick2[55]: - x[55] + r[55] <= 0
 mccormick2[56]: - x[56] + r[56] <= 0
 mccormick2[57]: - x[57] + r[57] <= 0
 mccormick2[58]: - x[58] + r[58] <= 0
 mccormick2[59]: - x[59] + r[59] <= 0
 mccormick2[60]: - x[60] + r[60] <= 0
 mccormick2[61]: - x[61] + r[61] <= 0
 mccormick2[62]: - x[62] + r[62] <= 0
 mccormick2[63]: - x[63] + r[63] <= 0
 mccormick2[64]: - x[64] + r[64] <= 0
 mccormick2[65]: - x[65] + r[65] <= 0
 mccormick2[66]: - x[66] + r[66] <= 0
 mccormick2[67]: - x[67] + r[67] <= 0
 mccormick2[68]: - x[68] + r[68] <= 0
 mccormick2[69]: - x[69] + r[69] <= 0
 mccormick2[70]: - x[70] + r[70] <= 0
 mccormick2[71]: - x[71] + r[71] <= 0
 mccormick2[72]: - x[72] + r[72] <= 0
 mccormick2[73]: - x[73] + r[73] <= 0
 mccormick2[74]: - x[74] + r[74] <= 0
 mccormick2[75]: - x[75] + r[75] <= 0
 mccormick2[76]: - x[76] + r[76] <= 0
 mccormick2[77]: - x[77] + r[77] <= 0
 mccormick2[78]: - x[78] + r[78] <= 0
 mccormick2[79]: - x[79] + r[79] <= 0
 mccormick2[80]: - x[80] + r[80] <= 0
 mccormick2[81]: - x[81] + r[81] <= 0
 mccormick2[82]: - x[82] + r[82] <= 0
 mccormick2[83]: - x[83] + r[83] <= 0
 mccormick2[84]: - x[84] + r[84] <= 0
 mccormick2[85]: - x[85] + r[85] <= 0
 mccormick2[86]: - x[86] + r[86] <= 0
 mccormick2[87]: - x[87] + r[87] <= 0
 mccormick2[88]: - x[88] + r[88] <= 0
 mccormick2[89]: - x[89] + r[89] <= 0
 mccormick2[90]: - x[90] + r[90] <= 0
 mccormick2[91]: - x[91] + r[91] <= 0
 mccormick2[92]: - x[92] + r[92] <= 0
 mccormick2[93]: - x[93] + r[93] <= 0
 mccormick2[94]: - x[94] + r[94] <= 0
 mccormick2[95]: - x[95] + r[95] <= 0
 mccormick2[96]: - x[96] + r[96] <= 0
 mccormick2[97]: - x[97] + r[97] <= 0
 mccormick2[98]: - x[98] + r[98] <= 0
 mccormick2[99]: - x[99] + r[99] <= 0
 mccormick2[100]: - x[100] + r[100] <= 0
 mccormick2[101]: - x[101] + r[101] <= 0
 mccormick2[102]: - x[102] + r[102] <= 0
 mccormick2[103]: - x[103] + r[103] <= 0
 mccormick2[104]: - x[104] + r[104] <= 0
 mccormick2[105]: - x[105] + r[105] <= 0
 mccormick2[106]: - x[106] + r[106] <= 0
 mccormick2[107]: - x[107] + r[107] <= 0
 mccormick2[108]: - x[108] + r[108] <= 0
 mccormick2[109]: - x[109] + r[109] <= 0
 mccormick2[110]: - x[110] + r[110] <= 0
 mccormick2[111]: - x[111] + r[111] <= 0
 mccormick2[112]: - x[112] + r[112] <= 0
 mccormick2[113]: - x[113] + r[113] <= 0
 mccormick2[114]: - x[114] + r[114] <= 0
 mccormick2[115]: - x[115] + r[115] <= 0
 mccormick2[116]: - x[116] + r[116] <= 0
 mccormick2[117]: - x[117] + r[117] <= 0
 mccormick2[118]: - x[118] + r[118] <= 0
 mccormick2[119]: - x[119] + r[119] <= 0
 mccormick2[120]: - x[120] + r[120] <= 0
 mccormick2[121]: - x[121] + r[121] <= 0
 mccormick2[122]: - x[122] + r[122] <= 0
 mccormick2[123]: - x[123] + r[123] <= 0
 mccormick2[124]: - x[124] + r[124] <= 0
 mccormick2[125]: - x[125] + r[125] <= 0
 mccormick2[126]: - x[126] + r[126] <= 0
 mccormick2[127]: - x[127] + r[127] <= 0
 mccormick2[128]: - x[128] + r[128] <= 0
 mccormick2[129]: - x[129] + r[129] <= 0
 mccormick3[0]: x[0] + u[0] - r[0] <= 1
 mccormick3[1]: x[1] + u[1] - r[1] <= 1
 mccormick3[2]: x[2] + u[2] - r[2] <= 1
 mccormick3[3]: x[3] + u[3] - r[3] <= 1
 mccormick3[4]: x[4] + u[4] - r[4] <= 1
 mccormick3[5]: x[5] + u[5] - r[5] <= 1
 mccormick3[6]: x[6] + u[6] - r[6] <= 1
 mccormick3[7]: x[7] + u[7] - r[7] <= 1
 mccormick3[8]: x[8] + u[8] - r[8] <= 1
 mccormick3[9]: x[9] + u[9] - r[9] <= 1
 mccormick3[10]: x[10] + u[10] - r[10] <= 1
 mccormick3[11]: x[11] + u[11] - r[11] <= 1
 mccormick3[12]: x[12] + u[12] - r[12] <= 1
 mccormick3[13]: x[13] + u[13] - r[13] <= 1
 mccormick3[14]: x[14] + u[14] - r[14] <= 1
 mccormick3[15]: x[15] + u[15] - r[15] <= 1
 mccormick3[16]: x[16] + u[16] - r[16] <= 1
 mccormick3[17]: x[17] + u[17] - r[17] <= 1
 mccormick3[18]: x[18] + u[18] - r[18] <= 1
 mccormick3[19]: x[19] + u[19] - r[19] <= 1
 mccormick3[20]: x[20] + u[20] - r[20] <= 1
 mccormick3[21]: x[21] + u[21] - r[21] <= 1
 mccormick3[22]: x[22] + u[22] - r[22] <= 1
 mccormick3[23]: x[23] + u[23] - r[23] <= 1
 mccormick3[24]: x[24] + u[24] - r[24] <= 1
 mccormick3[25]: x[25] + u[25] - r[25] <= 1
 mccormick3[26]: x[26] + u[26] - r[26] <= 1
 mccormick3[27]: x[27] + u[27] - r[27] <= 1
 mccormick3[28]: x[28] + u[28] - r[28] <= 1
 mccormick3[29]: x[29] + u[29] - r[29] <= 1
 mccormick3[30]: x[30] + u[30] - r[30] <= 1
 mccormick3[31]: x[31] + u[31] - r[31] <= 1
 mccormick3[32]: x[32] + u[32] - r[32] <= 1
 mccormick3[33]: x[33] + u[33] - r[33] <= 1
 mccormick3[34]: x[34] + u[34] - r[34] <= 1
 mccormick3[35]: x[35] + u[35] - r[35] <= 1
 mccormick3[36]: x[36] + u[36] - r[36] <= 1
 mccormick3[37]: x[37] + u[37] - r[37] <= 1
 mccormick3[38]: x[38] + u[38] - r[38] <= 1
 mccormick3[39]: x[39] + u[39] - r[39] <= 1
 mccormick3[40]: x[40] + u[40] - r[40] <= 1
 mccormick3[41]: x[41] + u[41] - r[41] <= 1
 mccormick3[42]: x[42] + u[42] - r[42] <= 1
 mccormick3[43]: x[43] + u[43] - r[43] <= 1
 mccormick3[44]: x[44] + u[44] - r[44] <= 1
 mccormick3[45]: x[45] + u[45] - r[45] <= 1
 mccormick3[46]: x[46] + u[46] - r[46] <= 1
 mccormick3[47]: x[47] + u[47] - r[47] <= 1
 mccormick3[48]: x[48] + u[48] - r[48] <= 1
 mccormick3[49]: x[49] + u[49] - r[49] <= 1
 mccormick3[50]: x[50] + u[50] - r[50] <= 1
 mccormick3[51]: x[51] + u[51] - r[51] <= 1
 mccormick3[52]: x[52] + u[52] - r[52] <= 1
 mccormick3[53]: x[53] + u[53] - r[53] <= 1
 mccormick3[54]: x[54] + u[54] - r[54] <= 1
 mccormick3[55]: x[55] + u[55] - r[55] <= 1
 mccormick3[56]: x[56] + u[56] - r[56] <= 1
 mccormick3[57]: x[57] + u[57] - r[57] <= 1
 mccormick3[58]: x[58] + u[58] - r[58] <= 1
 mccormick3[59]: x[59] + u[59] - r[59] <= 1
 mccormick3[60]: x[60] + u[60] - r[60] <= 1
 mccormick3[61]: x[61] + u[61] - r[61] <= 1
 mccormick3[62]: x[62] + u[62] - r[62] <= 1
 mccormick3[63]: x[63] + u[63] - r[63] <= 1
 mccormick3[64]: x[64] + u[64] - r[64] <= 1
 mccormick3[65]: x[65] + u[65] - r[65] <= 1
 mccormick3[66]: x[66] + u[66] - r[66] <= 1
 mccormick3[67]: x[67] + u[67] - r[67] <= 1
 mccormick3[68]: x[68] + u[68] - r[68] <= 1
 mccormick3[69]: x[69] + u[69] - r[69] <= 1
 mccormick3[70]: x[70] + u[70] - r[70] <= 1
 mccormick3[71]: x[71] + u[71] - r[71] <= 1
 mccormick3[72]: x[72] + u[72] - r[72] <= 1
 mccormick3[73]: x[73] + u[73] - r[73] <= 1
 mccormick3[74]: x[74] + u[74] - r[74] <= 1
 mccormick3[75]: x[75] + u[75] - r[75] <= 1
 mccormick3[76]: x[76] + u[76] - r[76] <= 1
 mccormick3[77]: x[77] + u[77] - r[77] <= 1
 mccormick3[78]: x[78] + u[78] - r[78] <= 1
 mccormick3[79]: x[79] + u[79] - r[79] <= 1
 mccormick3[80]: x[80] + u[80] - r[80] <= 1
 mccormick3[81]: x[81] + u[81] - r[81] <= 1
 mccormick3[82]: x[82] + u[82] - r[82] <= 1
 mccormick3[83]: x[83] + u[83] - r[83] <= 1
 mccormick3[84]: x[84] + u[84] - r[84] <= 1
 mccormick3[85]: x[85] + u[85] - r[85] <= 1
 mccormick3[86]: x[86] + u[86] - r[86] <= 1
 mccormick3[87]: x[87] + u[87] - r[87] <= 1
 mccormick3[88]: x[88] + u[88] - r[88] <= 1
 mccormick3[89]: x[89] + u[89] - r[89] <= 1
 mccormick3[90]: x[90] + u[90] - r[90] <= 1
 mccormick3[91]: x[91] + u[91] - r[91] <= 1
 mccormick3[92]: x[92] + u[92] - r[92] <= 1
 mccormick3[93]: x[93] + u[93] - r[93] <= 1
 mccormick3[94]: x[94] + u[94] - r[94] <= 1
 mccormick3[95]: x[95] + u[95] - r[95] <= 1
 mccormick3[96]: x[96] + u[96] - r[96] <= 1
 mccormick3[97]: x[97] + u[97] - r[97] <= 1
 mccormick3[98]: x[98] + u[98] - r[98] <= 1
 mccormick3[99]: x[99] + u[99] - r[99] <= 1
 mccormick3[100]: x[100] + u[100] - r[100] <= 1
 mccormick3[101]: x[101] + u[101] - r[101] <= 1
 mccormick3[102]: x[102] + u[102] - r[102] <= 1
 mccormick3[103]: x[103] + u[103] - r[103] <= 1
 mccormick3[104]: x[104] + u[104] - r[104] <= 1
 mccormick3[105]: x[105] + u[105] - r[105] <= 1
 mccormick3[106]: x[106] + u[106] - r[106] <= 1
 mccormick3[107]: x[107] + u[107] - r[107] <= 1
 mccormick3[108]: x[108] + u[108] - r[108] <= 1
 mccormick3[109]: x[109] + u[109] - r[109] <= 1
 mccormick3[110]: x[110] + u[110] - r[110] <= 1
 mccormick3[111]: x[111] + u[111] - r[111] <= 1
 mccormick3[112]: x[112] + u[112] - r[112] <= 1
 mccormick3[113]: x[113] + u[113] - r[113] <= 1
 mccormick3[114]: x[114] + u[114] - r[114] <= 1
 mccormick3[115]: x[115] + u[115] - r[115] <= 1
 mccormick3[116]: x[116] + u[116] - r[116] <= 1
 mccormick3[117]: x[117] + u[117] - r[117] <= 1
 mccormick3[118]: x[118] + u[118] - r[118] <= 1
 mccormick3[119]: x[119] + u[119] - r[119] <= 1
 mccormick3[120]: x[120] + u[120] - r[120] <= 1
 mccormick3[121]: x[121] + u[121] - r[121] <= 1
 mccormick3[122]: x[122] + u[122] - r[122] <= 1
 mccormick3[123]: x[123] + u[123] - r[123] <= 1
 mccormick3[124]: x[124] + u[124] - r[124] <= 1
 mccormick3[125]: x[125] + u[125] - r[125] <= 1
 mccormick3[126]: x[126] + u[126] - r[126] <= 1
 mccormick3[127]: x[127] + u[127] - r[127] <= 1
 mccormick3[128]: x[128] + u[128] - r[128] <= 1
 mccormick3[129]: x[129] + u[129] - r[129] <= 1
Bounds
Binaries
 x[0] x[1] x[2] x[3] x[4] x[5] x[6] x[7] x[8] x[9] x[10] x[11] x[12] x[13]
 x[14] x[15] x[16] x[17] x[18] x[19] x[20] x[21] x[22] x[23] x[24] x[25]
 x[26] x[27] x[28] x[29] x[30] x[31] x[32] x[33] x[34] x[35] x[36] x[37]
 x[38] x[39] x[40] x[41] x[42] x[43] x[44] x[45] x[46] x[47] x[48] x[49]
 x[50] x[51] x[52] x[53] x[54] x[55] x[56] x[57] x[58] x[59] x[60] x[61]
 x[62] x[63] x[64] x[65] x[66] x[67] x[68] x[69] x[70] x[71] x[72] x[73]
 x[74] x[75] x[76] x[77] x[78] x[79] x[80] x[81] x[82] x[83] x[84] x[85]
 x[86] x[87] x[88] x[89] x[90] x[91] x[92] x[93] x[94] x[95] x[96] x[97]
 x[98] x[99] x[100] x[101] x[102] x[103] x[104] x[105] x[106] x[107] x[108]
 x[109] x[110] x[111] x[112] x[113] x[114] x[115] x[116] x[117] x[118]
 x[119] x[120] x[121] x[122] x[123] x[124] x[125] x[126] x[127] x[128]
 x[129] u[0] u[1] u[2] u[3] u[4] u[5] u[6] u[7] u[8] u[9] u[10] u[11] u[12]
 u[13] u[14] u[15] u[16] u[17] u[18] u[19] u[20] u[21] u[22] u[23] u[24]
 u[25] u[26] u[27] u[28] u[29] u[30] u[31] u[32] u[33] u[34] u[35] u[36]
 u[37] u[38] u[39] u[40] u[41] u[42] u[43] u[44] u[45] u[46] u[47] u[48]
 u[49] u[50] u[51] u[52] u[53] u[54] u[55] u[56] u[57] u[58] u[59] u[60]
 u[61] u[62] u[63] u[64] u[65] u[66] u[67] u[68] u[69] u[70] u[71] u[72]
 u[73] u[74] u[75] u[76] u[77] u[78] u[79] u[80] u[81] u[82] u[83] u[84]
 u[85] u[86] u[87] u[88] u[89] u[90] u[91] u[92] u[93] u[94] u[95] u[96]
 u[97] u[98] u[99] u[100] u[101] u[102] u[103] u[104] u[105] u[106] u[107]
 u[108] u[109] u[110] u[111] u[112] u[113] u[114] u[115] u[116] u[117]
 u[118] u[119] u[120] u[121] u[122] u[123] u[124] u[125] u[126] u[127]
 u[128] u[129] r[0] r[1] r[2] r[3] r[4] r[5] r[6] r[7] r[8] r[9] r[10]
 r[11] r[12] r[13] r[14] r[15] r[16] r[17] r[18] r[19] r[20] r[21] r[22]
 r[23] r[24] r[25] r[26] r[27] r[28] r[29] r[30] r[31] r[32] r[33] r[34]
 r[35] r[36] r[37] r[38] r[39] r[40] r[41] r[42] r[43] r[44] r[45] r[46]
 r[47] r[48] r[49] r[50] r[51] r[52] r[53] r[54] r[55] r[56] r[57] r[58]
 r[59] r[60] r[61] r[62] r[63] r[64] r[65] r[66] r[67] r[68] r[69] r[70]
 r[71] r[72] r[73] r[74] r[75] r[76] r[77] r[78] r[79] r[80] r[81] r[82]
 r[83] r[84] r[85] r[86] r[87] r[88] r[89] r[90] r[91] r[92] r[93] r[94]
 r[95] r[96] r[97] r[98] r[99] r[100] r[101] r[102] r[103] r[104] r[105]
 r[106] r[107] r[108] r[109] r[110] r[111] r[112] r[113] r[114] r[115]
 r[116] r[117] r[118] r[119] r[120] r[121] r[122] r[123] r[124] r[125]
 r[126] r[127] r[128] r[129]
End
