instances/knapsack/discrete_knapsack_uncertainty/knapsack_130_18.kp
46905
130
631

5 0.5 94
70 7.0 2
72 7.2 8
17 1.7 96
42 4.2 73
35 3.5 93
79 7.9 17
21 2.1 35
35 3.5 66
84 8.4 26
17 1.7 51
29 2.9 3
54 5.4 99
26 2.6 18
62 6.2 79
78 7.8 40
83 8.3 82
2 0.2 50
43 4.3 2
64 6.4 1
95 9.5 53
13 1.3 95
22 2.2 56
88 8.8 88
42 4.2 65
46 4.6 30
4 0.4 24
13 1.3 39
59 5.9 42
37 3.7 92
75 7.5 5
97 9.7 20
37 3.7 24
15 1.5 43
62 6.2 39
91 9.1 1
10 1.0 45
34 3.4 59
18 1.8 46
20 2.0 27
77 7.7 76
43 4.3 37
92 9.2 1
75 7.5 71
1 0.1 94
12 1.2 87
75 7.5 68
3 0.3 40
9 0.9 40
6 0.6 25
76 7.6 79
18 1.8 18
91 9.1 39
54 5.4 17
70 7.0 36
9 0.9 38
87 8.7 18
52 5.2 36
26 2.6 100
28 2.8 47
58 5.8 36
48 4.8 90
49 4.9 93
52 5.2 69
61 6.1 46
86 8.6 49
78 7.8 5
8 0.8 77
50 5.0 4
55 5.5 37
63 6.3 33
75 7.5 11
80 8.0 37
77 7.7 69
65 6.5 14
26 2.6 62
88 8.8 6
89 8.9 97
78 7.8 48
40 4.0 63
23 2.3 59
79 7.9 34
88 8.8 41
7 0.7 82
43 4.3 1
63 6.3 32
33 3.3 26
86 8.6 39
36 3.6 80
33 3.3 78
74 7.4 42
70 7.0 9
82 8.2 49
61 6.1 28
26 2.6 40
95 9.5 66
83 8.3 29
46 4.6 52
74 7.4 24
98 9.8 44
47 4.7 88
10 1.0 37
68 6.8 54
98 9.8 29
59 5.9 75
44 4.4 55
97 9.7 98
64 6.4 4
52 5.2 98
43 4.3 32
60 6.0 45
93 9.3 18
43 4.3 5
55 5.5 47
15 1.5 18
36 3.6 45
33 3.3 39
43 4.3 85
99 9.9 58
54 5.4 55
9 0.9 1
22 2.2 14
33 3.3 62
76 7.6 15
91 9.1 51
8 0.8 68
5 0.5 44
65 6.5 94
52 5.2 83
29 2.9 32

30085
645

[0.32704711178630136 1.5017105496085656 0.12201552664540229 1.24333457619087 0.6013225662026644 1.5850336311808664 2.5583293642940683 2.7364301514587437 4.242749371274593 0.15257484145288464 2.874094532119891 2.474510257025845 3.870707992092435 0.5654705359398637 1.5503486206281747 3.4453073187234606 3.575255451638325 3.7213819601481104 1.0376323540007584 1.4463523806219334 3.0766451340081913 2.3390223623938917 2.859182918485695 0.3214579125222292 2.246946206698756 4.659748499394385 0.8368256607367439 2.1057389703364002 1.4231918883368724 1.6908639506460759 4.497578393087782 2.4758610296523895 3.7993203299224825 0.09800974100630902 3.5856802219975568 4.363162290315753 2.9653383395076736 4.514447484362614 4.784687239804684 1.7843181875379983 2.735851013178461 4.359952289514731 4.102132025122565 0.40016929058257195 2.0657288949462105 1.9498090428080979 4.012717029343734 3.3780235383569117 4.276866615579068 0.16889022048146413 4.29952858815974 2.2447349189770174 0.7637010264342897 2.6577753029886044 4.158433782884135 1.809092606462585 2.6242370232958323 1.9020387644214887 4.634251161156768 2.2504634595920776 2.2750358367970294 0.44929212643139393 4.550847435523327 2.7644276361275493 2.0505937966627665 3.7122508808902657 0.1746563789252017 0.2774552455241837 4.725592451271533 3.4219991496392437 4.398502183161631 0.9981109330761102 4.169705547674204 4.353726735192214 0.7404807125757376 1.8457003071896756 0.7119287406558921 1.876618383387553 4.7773315913533825 4.870686219515632 0.35697739645336324 3.3574762350586456 2.5189402419469538 1.9239386176154907 4.542207627731465 2.5039308000105747 4.171443253849698 0.0250800101923664 3.8220265648647427 1.7215662450289082 1.5148293192408693 0.5368517899300745 1.825009448562632 3.2959393482211263 2.848587872257787 2.2973070339209594 4.839499878582532 2.518231237537546 1.8102387132797366 0.16926436330243186 4.5302793873478935 2.508189611993102 2.028680160032148 0.1409180436327358 4.3356726058771 1.3540894842583648 4.5581376790345525 1.909881369291239 1.0237351893720343 0.9597969908145618 4.888871982587422 2.0889925868424264 0.7721776480648922 1.9762015469070673 1.815859614124746 2.1648770538510154 2.1422829850187193 1.931484629280072 2.9412181283803975 2.4940995219469833 1.3105503435339718 4.149603811552099 4.453654184782803 1.8443520269640743 4.040592211204923 3.577970755802897 3.7882289965972613 4.003459325611181 3.2077963312703517 2.7380048993078843]

[35 52 26 39 20 73 29 19 85 58 39 67 44 52 48 52 81 52 33 62 49 23 52 42 84 88 10 39 21 51 57 83 59 89 96 93 40 88 92 62 55 57 14 13 59 18 17 57 99 36 70 80 49 48 68 71 97 42 56 50 16 82 23 34 7 12 84 26 40 53 49 93 70 19 59 28 42 59 68 2 69 73 86 29 33 69 59 100 2 67 56 80 20 75 32 73 21 32 96 8 49 100 22 44 61 86 47 54 30 17 26 55 97 53 1 98 75 41 69 32 31 100 51 26 85 66 19 35 82 35]
